137
1000000
43445
75982
161200
16211
208545
81101
185792
106940
78475
38555
63608
165674
127991
234010
155460
46982
165803
124330
246588
118645
6999
236746
38847
208742
63321
67189
2242
109760
117246
242411
72117
96337
20974
233681
185832
3168
477
29710
35142
244492
22256
167870
114818
171102
14729
119510
37509
73991
85701
77358
232298
108752
126269
117820
89378
20442
89747
226098
119030
17603
174342
66669
133515
38506
166464
20261
78843
187475
154866
5705
170773
124524
32864
65429
178155
164214
97901
61244
212753
228914
4107
110
92887
77895
138375
5940
23865
9900
94235
230927
31149
32488
173720
230209
104691
187234
201176
26111
205476
67940
94804
245673
5116
135900
247891
122275
114742
19131
216462
89443
226024
228722
55147
91530
158625
248463
62990
93742
165144
128822
220325
32543
14174
130563
151406
146092
57144
10150
41995
188245
25591
50844
18700
155768
65525
50106
95280
